
  17    4
  10   10   10   10

   0   0   0   0   0   5 2 3 4 8 9 
   4  10  10  10  10   3 16 11 6 
   2  10  10  10  10   3 13 11 5 
   2  10  10  10  10   4 16 13 12 10 
   3  10  10  10  10   2 16 7 
   8  10  10  10  10   2 13 7 
   5  10  10  10  10   2 12 10 
   9  10  10  10  10   2 15 12 
   1  10  10  10  10   2 15 12 
   4  10  10  10  10   2 15 14 
   3  10  10  10  10   1 12 
   4  10  10  10  10   1 14 
   7  10  10  10  10   1 15 
   5  10  10  10  10   1 17
   1  10  10  10  10   1 17
   8  10  10  10  10   1 17
   0   0   0   0   0   0 
